language Essence 1.3

letting blksize_delta be
        function(1 --> 5, 2 --> 5, 3 --> 4, 4 --> 5, 5 --> 5, 6 --> 5, 7 --> 4, 8 --> 5, 9 --> 5, 10 --> 4, 11 --> 2,
                 12 --> 3, 13 --> 5, 14 --> 5, 15 --> 5, 16 --> 5)
letting maxcars be
        function(1 --> 10, 2 --> 10, 3 --> 10, 4 --> 10, 5 --> 10, 6 --> 10, 7 --> 10, 8 --> 10, 9 --> 10, 10 --> 10,
                 11 --> 10, 12 --> 10, 13 --> 10, 14 --> 10, 15 --> 10, 16 --> 10)
letting n_cars be 187
letting n_classes be 2
letting n_options be 16
letting quantity be function(1 --> 96, 2 --> 91)
letting usage be
        relation((1, 1), (1, 2), (1, 3), (1, 4), (1, 5), (1, 6), (1, 7), (1, 8), (1, 9), (1, 10), (1, 11), (1, 12),
                 (1, 13), (1, 14), (1, 15), (2, 16))
$ Visualisation for usage
$  1  1
$  1  2
$  1  3
$  1  4
$  1  5
$  1  6
$  1  7
$  1  8
$  1  9
$  1 10
$  1 11
$  1 12
$  1 13
$  1 14
$  1 15
$  2 16

